35 500
8 195
6 144
10 125
10 163
7 163
4 138
6 191
2 143
7 100
11 154
6 186
10 199
2 127
6 143
10 18
8 138
11 186
4 125
8 125
11 125
10 199
7 186
9 190
3 195
5 127
2 119
10 154
3 144
10 116
7 119
4 116
2 100
5 186
2 190
9 191
